NAME : to_solve
COMMENT : to be solved with tsp_solver
TYPE : TSP
DIMENSION: 8
EDGE_WEIGHT_TYPE : EUC_2D
NODE_COORD_SECTION
1    662    448
2    687    489
3    718    529
4    760    558
5    622    491
6    497    551
7    391    539
8    719    58
EOF